NAME          COPTPROB
OBJSENSE
  MIN
ROWS
 N  __OBJ___
 L  C21     
 L  C50     
 L  C60     
 L  C83     
 L  C120    
 L  C134    
 L  C138    
COLUMNS
    MARKER    'MARKER'                 'INTORG'
    x24       __OBJ___  92
    x24       C50       -1
    x24       C60       -1
    x37       __OBJ___  225
    x37       C138      -1
    x64       __OBJ___  485
    x64       C83       -1
    x64       C134      -1
    x107      __OBJ___  261
    x107      C120      -1
    x107      C138      -1
    x138      __OBJ___  84
    x138      C50       -1
    x216      __OBJ___  197
    x216      C120      -1
    x250      __OBJ___  215
    x250      C21       -1
    x250      C60       -1
    x257      __OBJ___  365
    x257      C21       -1
    x257      C134      -1
    x317      __OBJ___  332
    x317      C83       -1
    x317      C120      -1
    x330      __OBJ___  32
    x330      C60       -1
    x434      __OBJ___  267
    x434      C50       -1
    x434      C138      -1
    x545      __OBJ___  282
    x545      C134      -1
    x647      __OBJ___  281
    x647      C83       -1
    MARKER    'MARKER'                 'INTEND'
RHS
    RHS       __OBJ___  -18136
    RHS       C21       -1
    RHS       C50       -1
    RHS       C60       -1
    RHS       C83       -1
    RHS       C120      -1
    RHS       C134      -1
    RHS       C138      -1
BOUNDS
 UP BOUND     x24       1
 UP BOUND     x37       1
 UP BOUND     x64       1
 UP BOUND     x107      1
 UP BOUND     x138      1
 UP BOUND     x216      1
 UP BOUND     x250      1
 UP BOUND     x257      1
 UP BOUND     x317      1
 UP BOUND     x330      1
 UP BOUND     x434      1
 UP BOUND     x545      1
 UP BOUND     x647      1
ENDATA
